certificates/rado_a9_c124_N19.cnf
c Rad2 upper bound instance: x1 + 9*x2 - x3 = 124, interval [1,19]
p cnf 19 80
1 3 14 0
-1 -3 -14 0
1 12 15 0
-1 -12 -15 0
2 4 14 0
-2 -4 -14 0
2 13 15 0
-2 -13 -15 0
3 5 14 0
-3 -5 -14 0
3 14 15 0
-3 -14 -15 0
4 6 14 0
-4 -6 -14 0
4 15 0
-4 -15 0
5 7 14 0
-5 -7 -14 0
5 15 16 0
-5 -15 -16 0
6 8 14 0
-6 -8 -14 0
6 15 17 0
-6 -15 -17 0
7 9 14 0
-7 -9 -14 0
7 15 18 0
-7 -15 -18 0
1 8 13 0
-1 -8 -13 0
8 10 14 0
-8 -10 -14 0
8 15 19 0
-8 -15 -19 0
2 9 13 0
-2 -9 -13 0
9 11 14 0
-9 -11 -14 0
3 10 13 0
-3 -10 -13 0
10 12 14 0
-10 -12 -14 0
4 11 13 0
-4 -11 -13 0
11 13 14 0
-11 -13 -14 0
5 12 13 0
-5 -12 -13 0
12 14 0
-12 -14 0
6 13 0
-6 -13 0
13 14 15 0
-13 -14 -15 0
7 13 14 0
-7 -13 -14 0
14 16 0
-14 -16 0
8 13 15 0
-8 -13 -15 0
14 15 17 0
-14 -15 -17 0
9 13 16 0
-9 -13 -16 0
14 16 18 0
-14 -16 -18 0
1 12 17 0
-1 -12 -17 0
10 13 17 0
-10 -13 -17 0
14 17 19 0
-14 -17 -19 0
2 12 18 0
-2 -12 -18 0
11 13 18 0
-11 -13 -18 0
3 12 19 0
-3 -12 -19 0
12 13 19 0
-12 -13 -19 0
