certificates/rado_a9_c124_N19.drat
-17 -19 0
d -17 -14 -19 0
14 -18 17 0
-15 -14 0
-14 17 0
-19 0
17 0
-14 0
12 0
16 0
-1 0
3 0
-4 -13 0
d -4 -11 -13 0
15 0
-4 0
-5 0
-6 0
2 0
0
